============================[ Problem Statistics ]=============================
|                                                                             |
|  Number of variables:           512                                         |
|  Number of clauses:            1288                                         |
|  Parse time:                   0.00 s                                       |
|  Eliminated clauses:           0.01 Mb                                      |
|  Simplification time:          0.00 s                                       |
|                                                                             |
============================[ Search Statistics ]==============================
| Conflicts |          ORIGINAL         |          LEARNT          | Progress |
|           |    Vars  Clauses Literals |    Limit  Clauses Lit/Cl |          |
===============================================================================
===============================================================================
restarts              : 1
conflicts             : 4              (906 /sec)
decisions             : 3              (0.00 % random) (679 /sec)
propagations          : 145            (32835 /sec)
conflict literals     : 4              (0.00 % deleted)
Memory used           : 0.69 MB
CPU time              : 0.004416 s

UNSATISFIABLE
